Test: battleship-10-10-unsat.cnf
Options: -no-inverting-opt -activity-nl-freq=1
WARNING: for repeatability, setting FPU to use double precision
============================[ Problem Statistics ]=============================
|                                                                             |
|  Number of symmetries:            8                                         |
|  Number of invertingSyms:         0                                         |
|  Number of variables:           100                                         |
|  Number of clauses:             550                                         |
|  Parse time:                   0.00 s                                       |
|                                                                             |
============================[ Search Statistics ]==============================
| Conflicts |          ORIGINAL         |          LEARNT          | Progress |
|           |    Vars  Clauses Literals |    Limit  Clauses Lit/Cl |          |
===============================================================================
|       100 |     100      550     1900 |      201      107     33 |  0.010 % |
|       250 |     100      550     1900 |      221      154     26 |  0.010 % |
|       475 |     100      550     1900 |      244      253     24 |  0.010 % |
|       812 |     100      550     1900 |      268      171     20 |  0.010 % |
|      1318 |     100      550     1900 |      295      226     21 |  0.010 % |
|      2077 |     100      550     1900 |      324      314     23 |  0.100 % |
|      3216 |     100      550     1900 |      357      182     19 |  0.010 % |
|      4924 |     100      550     1900 |      392      320     21 |  0.010 % |
|      7486 |     100      550     1900 |      432      334     20 |  0.010 % |
|     11330 |     100      550     1900 |      475      446     21 |  0.010 % |
===============================================================================
restarts              : 63
conflicts             : 16680          (78674 /sec)
symconflicts          : 27             (127 /sec)
decisions             : 20378          (0.00 % random) (96117 /sec)
propagations          : 352804         (1664068 /sec)
sympropagations       : 150            (708 /sec)
conflict literals     : 417099         (7.17 % deleted)
literals     : 417099         (7.17 % deleted)

HEURISTIC USAGES
random                : 0           
activity w/ lookahead : 0           
activity no lookahead : 20378       
original sp           : 0           
sym count             : 0           

Memory used           : 5.00 MB
CPU time              : 0.212013 s

UNSATISFIABLE
